; databases :: corpus-study/repo_src/databases/databases/core.py :: LOCK 'Connection._query_lock' :: naive encoding (verdict: sat)
; Generated by snf-pipeline (encoder.py) -- run with any
; SMT-LIB2-compliant solver, e.g. `z3 databases__corpus-study_repo_src_databases_databases_core.py__Connection._query_lock__naive.smt2`
; benchmark generated from python API
(set-info :status unknown)
(declare-fun holds_5 () Bool)
(declare-fun holds_4 () Bool)
(declare-fun holds_3 () Bool)
(declare-fun holds_2 () Bool)
(declare-fun holds_1 () Bool)
(declare-fun holds_0 () Bool)
(assert
 (let (($x36 (and holds_0 holds_1)))
(or $x36 (and holds_0 holds_2) (and holds_0 holds_3) (and holds_0 holds_4) (and holds_0 holds_5) (and holds_1 holds_2) (and holds_1 holds_3) (and holds_1 holds_4) (and holds_1 holds_5) (and holds_2 holds_3) (and holds_2 holds_4) (and holds_2 holds_5) (and holds_3 holds_4) (and holds_3 holds_5) (and holds_4 holds_5))))
(check-sat)
